
--- Job C2_E1.gms Start 08/23/24 13:56:35 47.3.0 125a0e22 WEX-WEI x86 64bit/MS Windows
--- Applying:
    C:\GAMS\47\gmsprmNT.txt
--- GAMS Parameters defined
    Input C:\Users\pm.deoliveiradejes\Documents\GitHub\PSE\C2_LP\C2_E1.gms
    PageSize 0
    ScrDir C:\Users\pm.deoliveiradejes\Documents\GitHub\PSE\C2_LP\225a\
    SysDir C:\GAMS\47\
    LogOption 3
    ErrMsg 1
    ErrorLog 99
    IDE 1
    LstTitleLeftAligned 1
Licensee: Academic User                                  G240823+0003Ac-GEN
          pm.deoliveiradejes@uniandes.edu.co                      CLA100108
          225a\gamslice.dat
          node:36839801 mem:8 cores:4 ipport:51274                         
          Community license for demonstration and instructional purposes only
Processor information: 1 socket(s), 4 core(s), and 8 thread(s) available
GAMS 47.3.0   Copyright (C) 1987-2024 GAMS Development. All rights reserved
--- Starting compilation
--- C2_E1.gms(16) 3 Mb
--- Starting execution: elapsed 0:00:00.031
--- C2_E1.gms(13) 4 Mb
--- Generating LP model ED
--- C2_E1.gms(15) 4 Mb
---   2 rows  3 columns  5 non-zeroes
--- Range statistics (absolute non-zero finite values)
--- RHS       [min, max] : [ 6.000E+02, 6.000E+02] - Zero values observed as well
--- Bound     [min, max] : [ 3.000E+02, 4.000E+02] - Zero values observed as well
--- Matrix    [min, max] : [ 1.000E+00, 2.500E+01]
--- Executing CPLEX (Solvelink=2): elapsed 0:00:00.047

IBM ILOG CPLEX   47.3.0 125a0e22 Jul 15, 2024          WEI x86 64bit/MS Window

*** This solver runs with a community license. No commercial use.
--- GMO setup time: 0.00s
--- GMO memory 0.50 Mb (peak 0.50 Mb)
--- Dictionary memory 0.00 Mb
--- Cplex 22.1.1.0 link memory 0.00 Mb (peak 0.00 Mb)
--- Starting Cplex

Version identifier: 22.1.1.0 | 2022-11-27 | 9160aff4d
CPXPARAM_Advance                                 0
CPXPARAM_Simplex_Display                         2
CPXPARAM_MIP_Display                             4
CPXPARAM_MIP_Pool_Capacity                       0
CPXPARAM_MIP_Tolerances_AbsMIPGap                0
Tried aggregator 1 time.
LP Presolve eliminated 1 rows and 3 columns.
All rows and columns eliminated.
Presolve time = 0.00 sec. (0.00 ticks)

--- LP status (1): optimal.
--- Cplex Time: 0.00sec (det. 0.00 ticks)


Optimal solution found
Objective:        13000.000000

--- Reading solution for model ED
*** Status: Normal completion
--- Job C2_E1.gms Stop 08/23/24 13:56:35 elapsed 0:00:00.172
